p edge 456 446
e 1 2
e 1 3
e 1 4
e 1 5
e 1 6
e 1 7
e 1 8
e 1 9
e 1 10
e 1 11
e 1 12
e 1 13
e 1 14
e 1 15
e 1 16
e 1 17
e 1 18
e 1 19
e 1 20
e 1 21
e 1 22
e 1 23
e 1 24
e 1 25
e 1 26
e 1 27
e 1 28
e 1 29
e 1 30
e 1 31
e 1 32
e 1 33
e 1 34
e 1 35
e 1 36
e 1 37
e 1 38
e 1 39
e 1 40
e 1 41
e 1 42
e 1 43
e 1 44
e 1 45
e 1 46
e 1 47
e 1 48
e 1 49
e 1 50
e 1 51
e 1 52
e 1 53
e 1 54
e 1 55
e 1 56
e 1 57
e 1 58
e 1 59
e 1 60
e 1 61
e 1 62
e 1 63
e 1 64
e 65 66
e 65 67
e 65 68
e 65 69
e 65 70
e 65 71
e 65 72
e 65 73
e 65 74
e 65 75
e 65 76
e 65 77
e 65 78
e 65 79
e 65 80
e 65 81
e 65 82
e 65 83
e 65 84
e 65 85
e 65 86
e 65 87
e 88 89
e 88 90
e 88 91
e 88 92
e 88 93
e 88 94
e 88 95
e 88 96
e 88 97
e 88 98
e 88 99
e 88 100
e 88 101
e 88 102
e 88 103
e 88 104
e 88 105
e 88 106
e 88 107
e 88 108
e 88 109
e 88 110
e 88 111
e 88 112
e 88 113
e 88 114
e 88 115
e 88 116
e 88 117
e 88 118
e 88 119
e 88 120
e 88 121
e 88 122
e 88 123
e 88 124
e 88 125
e 88 126
e 88 127
e 88 128
e 88 129
e 88 130
e 88 131
e 88 132
e 88 133
e 88 134
e 88 135
e 88 136
e 88 137
e 88 138
e 88 139
e 88 140
e 88 141
e 142 143
e 142 144
e 142 145
e 142 146
e 142 147
e 142 148
e 142 149
e 142 150
e 142 151
e 142 152
e 142 153
e 142 154
e 142 155
e 142 156
e 142 157
e 142 158
e 142 159
e 142 160
e 142 161
e 142 162
e 142 163
e 142 164
e 142 165
e 142 166
e 142 167
e 142 168
e 142 169
e 142 170
e 142 171
e 142 172
e 142 173
e 142 174
e 142 175
e 142 176
e 142 177
e 142 178
e 142 179
e 142 180
e 142 181
e 142 182
e 142 183
e 142 184
e 142 185
e 142 186
e 142 187
e 142 188
e 142 189
e 142 190
e 142 191
e 192 193
e 192 194
e 192 195
e 192 196
e 192 197
e 192 198
e 192 199
e 192 200
e 192 201
e 192 202
e 192 203
e 192 204
e 192 205
e 192 206
e 192 207
e 192 208
e 192 209
e 192 210
e 192 211
e 192 212
e 192 213
e 192 214
e 192 215
e 192 216
e 192 217
e 192 218
e 192 219
e 192 220
e 192 221
e 192 222
e 192 223
e 192 224
e 192 225
e 192 226
e 192 227
e 192 228
e 192 229
e 192 230
e 192 231
e 192 232
e 192 233
e 192 234
e 192 235
e 192 236
e 192 237
e 192 238
e 192 239
e 192 240
e 192 241
e 192 242
e 192 243
e 192 244
e 192 245
e 192 246
e 192 247
e 192 248
e 192 249
e 192 250
e 192 251
e 192 252
e 192 253
e 192 254
e 192 255
e 192 256
e 192 257
e 192 258
e 192 259
e 260 261
e 260 262
e 260 263
e 260 264
e 260 265
e 260 266
e 260 267
e 260 268
e 260 269
e 260 270
e 260 271
e 260 272
e 260 273
e 260 274
e 260 275
e 260 276
e 260 277
e 260 278
e 260 279
e 260 280
e 260 281
e 260 282
e 283 284
e 283 285
e 283 286
e 283 287
e 283 288
e 283 289
e 283 290
e 283 291
e 283 292
e 283 293
e 283 294
e 283 295
e 283 296
e 283 297
e 283 298
e 283 299
e 283 300
e 283 301
e 283 302
e 283 303
e 283 304
e 283 305
e 283 306
e 283 307
e 283 308
e 283 309
e 283 310
e 283 311
e 283 312
e 283 313
e 283 314
e 283 315
e 283 316
e 283 317
e 283 318
e 283 319
e 283 320
e 283 321
e 283 322
e 283 323
e 283 324
e 283 325
e 283 326
e 283 327
e 283 328
e 283 329
e 283 330
e 283 331
e 283 332
e 283 333
e 283 334
e 283 335
e 283 336
e 283 337
e 283 338
e 283 339
e 283 340
e 283 341
e 283 342
e 283 343
e 283 344
e 283 345
e 283 346
e 283 347
e 283 348
e 283 349
e 283 350
e 283 351
e 352 353
e 352 354
e 352 355
e 352 356
e 352 357
e 352 358
e 352 359
e 352 360
e 352 361
e 352 362
e 352 363
e 352 364
e 352 365
e 352 366
e 352 367
e 352 368
e 352 369
e 352 370
e 352 371
e 352 372
e 352 373
e 352 374
e 352 375
e 352 376
e 352 377
e 352 378
e 352 379
e 352 380
e 352 381
e 352 382
e 352 383
e 352 384
e 352 385
e 352 386
e 352 387
e 352 388
e 389 390
e 389 391
e 389 392
e 389 393
e 389 394
e 389 395
e 389 396
e 389 397
e 389 398
e 389 399
e 389 400
e 389 401
e 389 402
e 389 403
e 389 404
e 389 405
e 389 406
e 389 407
e 389 408
e 389 409
e 389 410
e 389 411
e 389 412
e 389 413
e 389 414
e 389 415
e 389 416
e 389 417
e 389 418
e 389 419
e 389 420
e 389 421
e 389 422
e 389 423
e 389 424
e 389 425
e 389 426
e 389 427
e 389 428
e 389 429
e 389 430
e 389 431
e 389 432
e 433 434
e 433 435
e 433 436
e 433 437
e 433 438
e 433 439
e 433 440
e 433 441
e 433 442
e 433 443
e 433 444
e 433 445
e 433 446
e 433 447
e 433 448
e 433 449
e 433 450
e 433 451
e 433 452
e 433 453
e 433 454
e 433 455
e 433 456
